7 68 187 124 133 98 115 76 83 66 165 105 52 50 144 69 131 6 192 96 10 108 140 47 123 93 19 92 36 39 46 173 85 178 89 149 71 56 45 193 57 151 166 31 185 26 145 148 152 110 180 12 139 155 40 189 53 58 63 181 182 190 51 153 32 43 143 65 196 102 127 78 121 54 132 141 11 191 104 168 167 8 158 22 33 163 113 16 86 3 109 147 159 82 101 157 41 184 60 161 198 44 67 9 15 35 100 0 5 23 160 72 118 75 48 146 70 13 30 183 150 4 61 17 176 129 125 172 137 136 175 195 24 84 197 21 169 199 116 177 80 103 55 94 130 164 119 25 79 186 91 99 188 88 97 112 154 106 1 162 14 29 90 122 59 95 77 179 114 62 87 174 142 64 156 27 135 194 138 73 2 20 117 134 107 120 37 126 81 34 18 42 49 38 170 128 74 28 111 171